
Gurobi 10.0.1 (linux64) logging started Sun Nov 26 16:05:58 2023

Set parameter LogFile to value "ArtificialInstance/ExperimentV2/S2T4K3/BaSp/gurobi91.txt"
Gurobi Optimizer version 10.0.1 build v10.0.1rc0 (linux64)

CPU model: AMD EPYC 7H12 64-Core Processor, instruction set [SSE2|AVX|AVX2]
Thread count: 128 physical cores, 128 logical processors, using up to 32 threads

Academic license 656792 - for non-commercial use only - registered to b.___@student.vu.nl
Optimize a model with 2995 rows, 4560 columns and 15440 nonzeros
Model fingerprint: 0xd7732282
Variable types: 0 continuous, 4560 integer (4560 binary)
Coefficient statistics:
  Matrix range     [1e+00, 1e+00]
  Objective range  [2e+00, 2e+01]
  Bounds range     [1e+00, 1e+00]
  RHS range        [1e+00, 1e+00]
Found heuristic solution: objective 641.0328958
Presolve time: 0.02s
Presolved: 2995 rows, 4560 columns, 15440 nonzeros
Variable types: 0 continuous, 4560 integer (4560 binary)

Root relaxation: objective 5.132439e+01, 2495 iterations, 0.07 seconds (0.06 work units)

    Nodes    |    Current Node    |     Objective Bounds      |     Work
 Expl Unexpl |  Obj  Depth IntInf | Incumbent    BestBd   Gap | It/Node Time

     0     0   51.32439    0  660  641.03290   51.32439  92.0%     -    0s
H    0     0                     362.9415469   51.32439  85.9%     -    0s
H    0     0                     271.1506797   51.32439  81.1%     -    0s
H    0     0                     112.4655352   51.32439  54.4%     -    0s
     0     0   57.14421    0  708  112.46554   57.14421  49.2%     -    0s
H    0     0                     105.4893795   57.14421  45.8%     -    0s
H    0     0                      92.8463918   57.14421  38.5%     -    0s
H    0     0                      88.2086559   59.95618  32.0%     -    0s
     0     0   59.95618    0  856   88.20866   59.95618  32.0%     -    0s
     0     0   60.18584    0  892   88.20866   60.18584  31.8%     -    0s
     0     0   62.25011    0  892   88.20866   62.25011  29.4%     -    0s
     0     0   62.25708    0  755   88.20866   62.25708  29.4%     -    0s
     0     0   62.25708    0  757   88.20866   62.25708  29.4%     -    0s
     0     0   63.07515    0  971   88.20866   63.07515  28.5%     -    0s
     0     0   63.22524    0  982   88.20866   63.22524  28.3%     -    0s
     0     0   63.28096    0  989   88.20866   63.28096  28.3%     -    0s
H    0     0                      87.4843913   64.81413  25.9%     -    0s
     0     0   64.81413    0  956   87.48439   64.81413  25.9%     -    0s
H    0     0                      85.5681468   64.81413  24.3%     -    1s
H    0     0                      84.5625127   64.90395  23.2%     -    1s
     0     0   64.90395    0 1004   84.56251   64.90395  23.2%     -    1s
     0     0   64.90654    0  989   84.56251   64.90654  23.2%     -    1s
H    0     0                      79.1718366   64.90654  18.0%     -    1s
     0     0   65.46537    0  888   79.17184   65.46537  17.3%     -    1s
     0     0   65.84062    0  948   79.17184   65.84062  16.8%     -    1s
     0     0   65.85856    0 1011   79.17184   65.85856  16.8%     -    1s
H    0     0                      77.5031612   65.86161  15.0%     -    1s
     0     0   65.86161    0  964   77.50316   65.86161  15.0%     -    1s
     0     0   66.41141    0  916   77.50316   66.41141  14.3%     -    1s
     0     0   66.47232    0 1021   77.50316   66.47232  14.2%     -    1s
     0     0   66.47232    0 1023   77.50316   66.47232  14.2%     -    1s
H    0     0                      77.1199434   66.54416  13.7%     -    1s
     0     0   66.54416    0 1001   77.11994   66.54416  13.7%     -    1s
     0     0   66.58519    0  972   77.11994   66.58519  13.7%     -    1s
     0     0   66.58519    0  977   77.11994   66.58519  13.7%     -    1s
     0     0   66.77085    0  985   77.11994   66.77085  13.4%     -    1s
     0     0   66.79419    0  978   77.11994   66.79419  13.4%     -    2s
     0     0   66.79907    0  993   77.11994   66.79907  13.4%     -    2s
     0     0   66.86213    0  986   77.11994   66.86213  13.3%     -    2s
     0     0   66.86486    0 1024   77.11994   66.86486  13.3%     -    2s
     0     0   66.86769    0 1018   77.11994   66.86769  13.3%     -    2s
     0     0   66.86769    0  908   77.11994   66.86769  13.3%     -    2s
     0     2   66.86769    0  908   77.11994   66.86769  13.3%     -    2s
H  119    69                      76.8475163   69.71778  9.28%   387    4s

Cutting planes:
  Gomory: 8
  Zero half: 162
  RLT: 125

Explored 876 nodes (138051 simplex iterations) in 4.86 seconds (3.84 work units)
Thread count was 32 (of 128 available processors)

Solution count 10: 76.8475 77.1199 77.5032 ... 105.489

Optimal solution found (tolerance 1.00e-04)
Best objective 7.684751630607e+01, best bound 7.684751630607e+01, gap 0.0000%
